SPARKNaCl/why3-cvc5/sparknacl-aes.adb_373_26_initialization_1.smt2
;; produced by cvc5.drv ;;
(set-logic ALL)
(set-info :smt-lib-version 2.6)
;;; generated by SMT-LIB2 driver
;;; SMT-LIB2 driver: bit-vectors, common part
;;; SMT-LIB2: integer arithmetic
;; "pow2"
(declare-fun pow2 (Int) Int)

(declare-const two_power_size_minus_one Int)

;; "two_power_size_minus_one_val"
(assert (= two_power_size_minus_one (pow2 (- 8 1))))

;; "min"
(define-fun min ((x Int) (y Int)) Int
  (ite (<= x y) x y))

;; "max"
(define-fun max ((x Int) (y Int)) Int
  (ite (<= x y) y x))

;; "Min_r"
(assert (forall ((x Int) (y Int)) (=> (<= y x) (= (min x y) y))))

;; "Max_l"
(assert (forall ((x Int) (y Int)) (=> (<= y x) (= (max x y) x))))

;; "Min_comm"
(assert (forall ((x Int) (y Int)) (= (min x y) (min y x))))

;; "Max_comm"
(assert (forall ((x Int) (y Int)) (= (max x y) (max y x))))

;; "Min_assoc"
(assert
  (forall ((x Int) (y Int) (z Int)) (= (min (min x y) z) (min x (min y z)))))

;; "Max_assoc"
(assert
  (forall ((x Int) (y Int) (z Int)) (= (max (max x y) z) (max x (max y z)))))

(declare-const two_power_size_minus_one1 Int)

;; "two_power_size_minus_one_val"
(assert (= two_power_size_minus_one1 (pow2 (- 32 1))))

(declare-sort u32 0)

;; "to_rep"
(declare-fun to_rep (u32) (_ BitVec 32))

;; "of_rep"
(declare-fun of_rep ((_ BitVec 32)) u32)

;; "inversion_axiom"
(assert
  (forall ((x u32)) (! (= (of_rep (to_rep x)) x) :pattern ((to_rep x)) )))

;; "range_axiom"
(assert true)

;; "coerce_axiom"
(assert
  (forall ((x (_ BitVec 32)))
    (! (= (to_rep (of_rep x)) x) :pattern ((to_rep (of_rep x))) )))

(declare-sort map1 0)

;; "has_bounds"
(declare-fun has_bounds (map1
  Int
  Int) Bool)

;; "get"
(declare-fun get (map1
  Int) u32)

(declare-sort byte 0)

;; "to_rep"
(declare-fun to_rep1 (byte) (_ BitVec 8))

;; "of_rep"
(declare-fun of_rep1 ((_ BitVec 8)) byte)

;; "inversion_axiom"
(assert
  (forall ((x byte)) (! (= (of_rep1 (to_rep1 x)) x) :pattern ((to_rep1 x)) )))

;; "range_axiom"
(assert true)

;; "coerce_axiom"
(assert
  (forall ((x (_ BitVec 8)))
    (! (= (to_rep1 (of_rep1 x)) x) :pattern ((to_rep1 (of_rep1 x))) )))

(declare-sort map2 0)

;; "has_bounds"
(declare-fun has_bounds1 (map2
  Int
  Int) Bool)

;; "get"
(declare-fun get1 (map2
  Int) byte)

(declare-datatypes ((byte__init_wrapper 0))
  (((byte__init_wrapperqtmk (rec__value byte)(us_attr__init Bool)))))

(declare-sort map3 0)

;; "has_bounds"
(declare-fun has_bounds2 (map3
  Int
  Int) Bool)

;; "get"
(declare-fun get2 (map3
  Int) byte__init_wrapper)

;; "set"
(declare-fun set (map3
  Int
  byte__init_wrapper) map3)

;; "set_eq"
(assert
  (forall ((a map3) (i Int) (v byte__init_wrapper))
    (! (= (get2 (set a i v) i) v) :pattern ((set a i v)) )))

;; "set_neq"
(assert
  (forall ((a map3) (i Int) (v byte__init_wrapper))
    (! (forall ((j Int))
         (! (=> (not (= i j)) (= (get2 (set a i v) j) (get2 a j))) :pattern (
         (get2
           a
           j)) :pattern ((get2 (set a i v) j)) )) :pattern ((set a i v)) )))

;; "set_has_bounds"
(assert
  (forall ((a map3) (i Int) (f Int) (l Int) (v byte__init_wrapper))
    (! (=>
         (and (<= f i) (<= i l))
         (=> (has_bounds2 a f l) (has_bounds2 (set a i v) f l))) :pattern (
    (has_bounds2
      (set a i v)
      f
      l)) )))

;; "__is_initialized"
(define-fun us_is_initialized ((temp___expr_809 map3)) Bool
  (forall ((temp___810 Int))
    (=>
      (and (<= 0 temp___810) (<= temp___810 3))
      (= (us_attr__init (get2 temp___expr_809 temp___810)) true))))

;; "convert"
(declare-fun convert (map3) map2)

;; "convert__def"
(assert
  (forall ((a map3))
    (forall ((temp___195 Int))
      (= (to_rep1 (of_rep1 (to_rep1 (rec__value (get2 a temp___195))))) 
      (to_rep1
        (get1 (convert a) temp___195))))))

;; Goal "def'vc"
;; File "sparknacl-aes.adb", line 50, characters 0-0
(assert
  (not
  (forall ((state map1) (column_old map2) (column_0 map3) (column_1 map3) (column_2 map3) (column_3 map3))
    (=>
      (has_bounds state 0 3)
      (=>
        (has_bounds1 column_old 0 3)
        (=>
          (has_bounds2 column_0 0 3)
          (=>
            (has_bounds2 column_1 0 3)
            (=>
              (has_bounds2 column_2 0 3)
              (=>
                (has_bounds2 column_3 0 3)
                (forall ((o (_ BitVec 32)))
                  (=>
                    (= (to_rep (get state 0)) o)
                    (forall ((param__output map3))
                      (=>
                        (and
                          (us_is_initialized param__output)
                          (has_bounds2 param__output 0 3))
                        (=>
                          (us_is_initialized param__output)
                          (forall ((column_old1 map2))
                            (=>
                              (= column_old1 (convert param__output))
                              (forall ((o1 (_ BitVec 8)))
                                (=>
                                  (= (to_rep1 (get1 column_old1 0)) o1)
                                  (forall ((o2 byte))
                                    (=>
                                      (= (to_rep1 o2) o1)
                                      (forall ((column_01 map3))
                                        (=>
                                          (= column_01 (set
                                                         column_0
                                                         0
                                                         (byte__init_wrapperqtmk
                                                           o2
                                                           true)))
                                          (forall ((o3 (_ BitVec 8)))
                                            (=>
                                              (= (to_rep1
                                                   (get1 column_old1 1)) o3)
                                              (forall ((o4 byte))
                                                (=>
                                                  (= (to_rep1 o4) o3)
                                                  (forall ((column_31 map3))
                                                    (=>
                                                      (= column_31 (set
                                                                    column_3
                                                                    1
                                                                    (byte__init_wrapperqtmk
                                                                    o4
                                                                    true)))
                                                      (forall ((o5 (_ BitVec 8)))
                                                        (=>
                                                          (= (to_rep1
                                                               (get1
                                                                 column_old1
                                                                 2)) o5)
                                                          (forall ((o6 byte))
                                                            (=>
                                                              (= (to_rep1 o6) o5)
                                                              (forall 
                                                                ((column_21 map3))
                                                                (=>
                                                                  (= column_21 
                                                                  (set
                                                                    column_2
                                                                    2
                                                                    (byte__init_wrapperqtmk
                                                                    o6
                                                                    true)))
                                                                  (forall 
                                                                    ((o7 (_ BitVec 8)))
                                                                    (=>
                                                                    (= 
                                                                    (to_rep1
                                                                    (get1
                                                                    column_old1
                                                                    3)) o7)
                                                                    (forall 
                                                                    ((o8 byte))
                                                                    (=>
                                                                    (= 
                                                                    (to_rep1
                                                                    o8) o7)
                                                                    (forall 
                                                                    ((column_11 map3))
                                                                    (=>
                                                                    (= column_11 
                                                                    (set
                                                                    column_1
                                                                    3
                                                                    (byte__init_wrapperqtmk
                                                                    o8
                                                                    true)))
                                                                    (forall 
                                                                    ((o9 (_ BitVec 32)))
                                                                    (=>
                                                                    (= 
                                                                    (to_rep
                                                                    (get
                                                                    state
                                                                    1)) o9)
                                                                    (forall 
                                                                    ((param__output1 map3))
                                                                    (=>
                                                                    (and
                                                                    (us_is_initialized
                                                                    param__output1)
                                                                    (has_bounds2
                                                                    param__output1
                                                                    0
                                                                    3))
                                                                    (us_is_initialized
                                                                    param__output1)))))))))))))))))))))))))))))))))))))))))))))

(check-sat)
